set VV := 0 1 2 3 4 5 6 7 8 9 10 11 12 13 14 15 16 17 18 19 20 21 ;
set VS := 0 1 2 3 4 5 6 7 8 9 10 11 12 13 14 15 16 17 18 19 20 21 22 23 24 25 26 27 28 29 30 31 32 33 34 35 36 37 38 39 40 41 42 43 44 45 46 47 ;
param cv := 
0 17
1 20
2 13
3 10
4 16
5 14
6 20
7 15
8 10
9 12
10 19
11 22
12 20
13 16
14 17
15 10
16 14
17 19
18 24
19 22
20 21
21 12
;
param cs := 
0 36
1 26
2 35
3 26
4 28
5 21
6 38
7 31
8 22
9 24
10 22
11 29
12 38
13 40
14 24
15 27
16 35
17 21
18 40
19 26
20 30
21 28
22 36
23 26
24 26
25 25
26 22
27 33
28 33
29 34
30 27
31 40
32 36
33 24
34 33
35 28
36 29
37 35
38 38
39 23
40 35
41 22
42 30
43 34
44 27
45 22
46 33
47 36
;
param bv:	 0 1 2 3 4 5 6 7 8 9 10 11 12 13 14 15 16 17 18 19 20 21 := 
		0 0 0 0 0 22 0 0 0 0 0 0 0 0 0 0 0 0 0 0 0 0 12 
		1 0 0 0 0 0 0 0 0 0 23 0 0 0 0 0 0 0 0 0 0 0 20 
		2 0 0 0 0 0 0 0 0 0 0 0 0 0 0 0 18 0 0 0 21 0 0 
		3 0 0 0 0 0 0 0 0 0 0 0 0 0 23 0 0 0 0 18 0 0 0 
		4 0 0 0 0 0 0 0 17 14 0 0 0 0 0 20 0 0 0 0 0 0 0 
		5 0 0 0 0 0 0 0 0 0 0 0 25 0 20 0 0 0 0 0 0 0 0 
		6 0 0 0 0 0 0 0 0 0 0 0 0 12 0 0 0 0 0 0 0 0 0 
		7 0 0 0 0 0 0 0 0 0 0 0 0 0 0 0 14 0 0 0 0 16 0 
		8 0 0 0 0 0 0 0 0 0 0 0 0 0 0 0 10 0 0 0 0 0 0 
		9 0 0 0 0 0 0 0 0 0 0 0 0 0 22 0 0 0 0 0 0 11 0 
		10 0 0 0 0 0 0 0 0 0 0 0 0 0 17 0 0 10 15 0 0 0 0 
		11 0 0 0 0 0 0 0 0 0 0 0 0 0 0 0 0 0 0 0 0 0 0 
		12 0 0 0 0 0 0 0 0 0 0 0 0 0 0 0 22 21 0 0 0 0 0 
		13 0 0 0 0 0 0 0 0 0 0 0 0 0 0 0 22 0 0 0 0 0 0 
		14 0 0 0 0 0 0 0 0 0 0 0 0 0 0 0 0 0 0 0 0 0 0 
		15 0 0 0 0 0 0 0 0 0 0 0 0 0 0 0 0 25 0 23 0 10 0 
		16 0 0 0 0 0 0 0 0 0 0 0 0 0 0 0 0 0 0 0 0 0 0 
		17 0 0 0 0 0 0 0 0 0 0 0 0 0 0 0 0 0 0 0 0 0 0 
		18 0 0 0 0 0 0 0 0 0 0 0 0 0 0 0 0 0 0 0 0 0 0 
		19 0 0 0 0 0 0 0 0 0 0 0 0 0 0 0 0 0 0 0 0 25 0 
		20 0 0 0 0 0 0 0 0 0 0 0 0 0 0 0 0 0 0 0 0 0 0 
		21 0 0 0 0 0 0 0 0 0 0 0 0 0 0 0 0 0 0 0 0 0 0 
;
param bs:	 0 1 2 3 4 5 6 7 8 9 10 11 12 13 14 15 16 17 18 19 20 21 22 23 24 25 26 27 28 29 30 31 32 33 34 35 36 37 38 39 40 41 42 43 44 45 46 47 := 
		0 0 0 0 0 0 0 0 0 0 0 0 0 29 0 0 0 29 0 0 0 0 0 0 0 0 0 0 0 0 0 0 0 0 0 0 0 0 0 0 0 0 0 0 0 0 0 0 0 
		1 0 0 0 37 0 0 0 0 34 0 0 0 0 24 0 0 0 0 0 0 0 0 0 0 0 0 0 36 23 0 0 0 0 27 0 0 0 0 0 0 28 33 0 0 0 0 0 0 
		2 0 0 0 0 0 0 0 0 0 0 0 0 0 0 0 0 40 0 0 0 0 0 0 0 0 0 0 0 0 0 0 0 24 0 0 0 0 0 0 22 0 0 0 29 0 0 0 0 
		3 0 37 0 0 0 0 0 0 0 0 0 0 30 0 0 0 0 0 0 23 0 0 0 0 0 0 0 0 0 0 0 0 0 0 0 29 0 0 0 22 0 0 0 0 26 0 0 0 
		4 0 0 0 0 0 0 0 0 0 0 0 0 0 0 0 0 0 0 0 0 30 0 0 0 0 0 0 0 0 0 28 0 0 0 37 40 0 39 0 0 0 0 0 0 0 0 0 0 
		5 0 0 0 0 0 0 0 0 0 0 0 0 0 0 25 0 0 0 0 0 0 0 0 0 0 0 0 0 0 0 0 0 37 0 0 0 0 35 0 0 0 0 0 0 0 0 0 0 
		6 0 0 0 0 0 0 0 0 33 0 0 25 0 0 0 0 0 0 35 0 0 0 0 29 0 0 0 0 29 0 0 0 0 27 0 0 0 0 33 0 26 0 0 0 21 22 0 0 
		7 0 0 0 0 0 0 0 0 0 0 0 0 0 0 0 0 0 0 0 0 0 27 0 0 0 0 0 0 0 0 0 0 0 0 0 0 0 21 0 0 36 29 0 0 0 0 0 0 
		8 0 34 0 0 0 0 33 0 0 35 0 0 0 0 0 0 0 0 0 0 0 0 0 0 0 0 0 0 0 0 0 0 0 21 0 0 0 0 0 0 0 0 29 0 0 0 0 0 
		9 0 0 0 0 0 0 0 0 35 0 0 0 0 0 0 0 0 0 0 0 0 0 0 0 0 0 0 0 0 0 0 0 0 0 0 36 29 0 0 0 0 0 0 0 0 0 0 0 
		10 0 0 0 0 0 0 0 0 0 0 0 0 0 0 0 0 0 0 0 0 0 0 0 0 0 0 0 0 0 0 0 0 0 0 0 0 0 0 0 0 0 0 0 0 0 36 0 0 
		11 0 0 0 0 0 0 25 0 0 0 0 0 0 0 0 0 0 0 0 0 0 0 29 0 0 0 0 0 0 0 0 0 0 0 0 0 0 0 0 37 0 0 0 0 32 0 0 0 
		12 29 0 0 30 0 0 0 0 0 0 0 0 0 0 0 0 21 0 0 0 0 0 0 0 0 0 0 0 0 0 0 38 0 0 0 0 0 0 0 0 0 20 0 0 0 0 26 37 
		13 0 24 0 0 0 0 0 0 0 0 0 0 0 0 0 0 0 0 0 0 0 0 0 0 0 0 0 0 0 0 0 0 0 0 0 0 0 0 36 0 0 0 0 0 0 0 0 0 
		14 0 0 0 0 0 25 0 0 0 0 0 0 0 0 0 0 0 0 0 0 38 0 0 0 0 0 0 0 0 0 0 0 0 0 0 0 0 0 0 0 0 0 0 0 0 0 0 0 
		15 0 0 0 0 0 0 0 0 0 0 0 0 0 0 0 0 0 0 0 29 0 0 0 0 21 0 0 0 0 0 0 0 0 0 0 0 0 0 0 0 0 0 0 28 0 0 0 0 
		16 29 0 40 0 0 0 0 0 0 0 0 0 21 0 0 0 0 0 0 0 0 0 0 0 0 0 40 0 0 0 0 0 0 0 0 0 24 0 0 0 32 0 0 0 0 0 0 0 
		17 0 0 0 0 0 0 0 0 0 0 0 0 0 0 0 0 0 0 0 38 0 0 0 0 0 0 0 0 0 0 0 0 0 0 0 0 0 0 0 0 0 0 29 0 0 0 0 0 
		18 0 0 0 0 0 0 35 0 0 0 0 0 0 0 0 0 0 0 0 0 0 0 0 0 0 0 40 0 0 0 0 0 0 0 31 0 0 0 0 0 0 0 0 0 0 0 0 0 
		19 0 0 0 23 0 0 0 0 0 0 0 0 0 0 0 29 0 38 0 0 0 0 0 0 29 0 0 0 24 0 29 0 0 0 0 0 0 26 0 0 0 0 0 0 0 0 0 0 
		20 0 0 0 0 30 0 0 0 0 0 0 0 0 0 38 0 0 0 0 0 0 0 0 0 0 0 0 0 28 0 0 0 40 0 0 0 0 0 22 0 0 0 0 0 0 0 0 0 
		21 0 0 0 0 0 0 0 27 0 0 0 0 0 0 0 0 0 0 0 0 0 0 0 0 0 0 0 0 0 0 0 0 0 0 31 0 0 0 0 0 0 0 0 0 0 0 0 0 
		22 0 0 0 0 0 0 0 0 0 0 0 29 0 0 0 0 0 0 0 0 0 0 0 0 0 0 0 24 22 36 0 0 0 0 0 0 0 0 0 36 0 0 0 0 0 0 0 0 
		23 0 0 0 0 0 0 29 0 0 0 0 0 0 0 0 0 0 0 0 0 0 0 0 0 0 0 0 25 0 0 0 0 0 0 27 0 0 0 37 0 0 0 0 0 0 0 0 34 
		24 0 0 0 0 0 0 0 0 0 0 0 0 0 0 0 21 0 0 0 29 0 0 0 0 0 0 0 0 0 0 21 0 0 0 0 0 0 0 0 0 0 0 24 0 0 0 0 0 
		25 0 0 0 0 0 0 0 0 0 0 0 0 0 0 0 0 0 0 0 0 0 0 0 0 0 0 0 0 0 0 0 40 0 0 0 0 0 0 0 0 0 0 29 0 0 0 0 0 
		26 0 0 0 0 0 0 0 0 0 0 0 0 0 0 0 0 40 0 40 0 0 0 0 0 0 0 0 27 20 0 0 0 0 40 0 0 0 0 0 37 0 0 0 0 31 0 0 34 
		27 0 36 0 0 0 0 0 0 0 0 0 0 0 0 0 0 0 0 0 0 0 0 24 25 0 0 27 0 0 0 0 0 0 0 28 0 0 0 0 20 0 0 0 0 0 0 0 0 
		28 0 23 0 0 0 0 29 0 0 0 0 0 0 0 0 0 0 0 0 24 28 0 22 0 0 0 20 0 0 0 0 0 0 0 0 0 0 0 38 0 0 0 0 0 0 0 0 0 
		29 0 0 0 0 0 0 0 0 0 0 0 0 0 0 0 0 0 0 0 0 0 0 36 0 0 0 0 0 0 0 0 0 0 0 0 0 21 0 0 26 0 0 0 0 0 0 0 0 
		30 0 0 0 0 28 0 0 0 0 0 0 0 0 0 0 0 0 0 0 29 0 0 0 0 21 0 0 0 0 0 0 29 40 0 0 0 0 0 0 0 0 0 0 0 0 0 0 27 
		31 0 0 0 0 0 0 0 0 0 0 0 0 38 0 0 0 0 0 0 0 0 0 0 0 0 40 0 0 0 0 29 0 0 0 0 0 0 21 0 0 0 33 26 0 24 0 0 0 
		32 0 0 24 0 0 37 0 0 0 0 0 0 0 0 0 0 0 0 0 0 40 0 0 0 0 0 0 0 0 0 40 0 0 0 0 0 0 0 0 0 0 0 23 27 0 39 23 0 
		33 0 27 0 0 0 0 27 0 21 0 0 0 0 0 0 0 0 0 0 0 0 0 0 0 0 0 40 0 0 0 0 0 0 0 0 40 0 0 0 0 0 0 0 0 0 0 0 0 
		34 0 0 0 0 37 0 0 0 0 0 0 0 0 0 0 0 0 0 31 0 0 31 0 27 0 0 0 28 0 0 0 0 0 0 0 0 0 0 0 0 31 0 0 0 0 0 0 0 
		35 0 0 0 29 40 0 0 0 0 36 0 0 0 0 0 0 0 0 0 0 0 0 0 0 0 0 0 0 0 0 0 0 0 40 0 0 0 0 0 0 0 0 0 0 0 0 0 0 
		36 0 0 0 0 0 0 0 0 0 29 0 0 0 0 0 0 24 0 0 0 0 0 0 0 0 0 0 0 0 21 0 0 0 0 0 0 0 0 0 33 0 36 0 0 0 0 0 27 
		37 0 0 0 0 39 35 0 21 0 0 0 0 0 0 0 0 0 0 0 26 0 0 0 0 0 0 0 0 0 0 0 21 0 0 0 0 0 0 0 0 0 0 37 0 39 39 0 0 
		38 0 0 0 0 0 0 33 0 0 0 0 0 0 36 0 0 0 0 0 0 22 0 0 37 0 0 0 0 38 0 0 0 0 0 0 0 0 0 0 38 0 0 0 0 0 0 0 0 
		39 0 0 22 22 0 0 0 0 0 0 0 37 0 0 0 0 0 0 0 0 0 0 36 0 0 0 37 20 0 26 0 0 0 0 0 0 33 0 38 0 0 34 0 0 0 0 0 0 
		40 0 28 0 0 0 0 26 36 0 0 0 0 0 0 0 0 32 0 0 0 0 0 0 0 0 0 0 0 0 0 0 0 0 0 31 0 0 0 0 0 0 0 0 0 32 0 0 0 
		41 0 33 0 0 0 0 0 29 0 0 0 0 20 0 0 0 0 0 0 0 0 0 0 0 0 0 0 0 0 0 0 33 0 0 0 0 36 0 0 34 0 0 0 0 0 0 0 0 
		42 0 0 0 0 0 0 0 0 29 0 0 0 0 0 0 0 0 29 0 0 0 0 0 0 24 29 0 0 0 0 0 26 23 0 0 0 0 37 0 0 0 0 0 0 0 40 0 0 
		43 0 0 29 0 0 0 0 0 0 0 0 0 0 0 0 28 0 0 0 0 0 0 0 0 0 0 0 0 0 0 0 0 27 0 0 0 0 0 0 0 0 0 0 0 0 0 0 0 
		44 0 0 0 26 0 0 21 0 0 0 0 32 0 0 0 0 0 0 0 0 0 0 0 0 0 0 31 0 0 0 0 24 0 0 0 0 0 39 0 0 32 0 0 0 0 0 0 0 
		45 0 0 0 0 0 0 22 0 0 0 36 0 0 0 0 0 0 0 0 0 0 0 0 0 0 0 0 0 0 0 0 0 39 0 0 0 0 39 0 0 0 0 40 0 0 0 0 0 
		46 0 0 0 0 0 0 0 0 0 0 0 0 26 0 0 0 0 0 0 0 0 0 0 0 0 0 0 0 0 0 0 0 23 0 0 0 0 0 0 0 0 0 0 0 0 0 0 0 
		47 0 0 0 0 0 0 0 0 0 0 0 0 37 0 0 0 0 0 0 0 0 0 0 34 0 0 34 0 0 0 27 0 0 0 0 0 27 0 0 0 0 0 0 0 0 0 0 0 
;
